0 135 
1 135 
2 137 
3 137 
4 138 
5 135 
6 133 
7 134 
8 133 
9 132 
10 130 
11 129 
12 130 
13 132 
14 130 
15 126 
16 126 
17 124 
18 123 
19 122 
20 122 
21 118 
22 118 
23 117 
24 118 
25 117 
26 115 
27 113 
28 113 
29 111 
30 110 
31 112 
32 107 
33 105 
34 101 
35 99 
36 99 
37 98 
38 96 
39 94 
40 91 
41 90 
42 88 
43 86 
44 83 
45 83 
46 82 
47 80 
48 81 
49 80 
50 78 
51 74 
52 73 
53 72 
54 69 
55 67 
56 66 
57 64 
58 62 
59 60 
60 60 
61 58 
62 55 
63 55 
64 55 
65 51 
66 51 
67 50 
68 50 
69 50 
70 48 
71 46 
72 45 
73 43 
74 42 
75 41 
76 39 
77 37 
78 34 
79 32 
80 33 
81 35 
82 32 
83 33 
84 33 
85 32 
86 32 
87 32 
88 31 
89 32 
90 33 
91 32 
92 30 
93 31 
94 32 
95 30 
96 29 
97 27 
98 26 
99 25 
100 22 
101 20 
102 20 
103 18 
104 18 
105 19 
106 16 
107 15 
108 14 
109 13 
110 13 
111 12 
112 13 
113 12 
114 12 
115 11 
116 11 
117 10 
118 9 
119 8 
120 7 
121 4 
122 4 
123 3 
124 2 
125 2 
126 1 
127 1 
128 0 
129 0 

